41
120
96	1
94	1
93	3
89	1
88	1
87	1
86	2
84	2
83	1
82	1
81	1
76	1
75	1
72	1
70	1
68	1
67	2
63	1
62	1
60	1
59	1
56	1
52	1
50	1
43	2
40	1
38	1
37	1
36	2
31	1
30	1
28	1
27	1
26	1
25	1
24	1
20	2
19	1
17	1
14	2
13	1
